Route #1: 29 37 47 36 21 28 4 
Route #2: 26 2 1 42 41 43 22 30 
Route #3: 25 18 24 44 32 9 
Route #4: 40 3 16 49 23 33 6 
Route #5: 46 27 13 15 20 5 48 45 
Route #6: 17 35 14 19 7 8 34 
Route #7: 11 38 31 10 39 12 
cost 680.525
execution_time 15.855
